c ---- [ banner ] ------------------------------------------------------------
c
c Kissat SAT Solver
c 
c Copyright (c) 2021-2022 Armin Biere University of Freiburg
c Copyright (c) 2019-2021 Armin Biere Johannes Kepler University Linz
c 
c Version 3.0.0 97917ddf2b12adc6f63c7b2a5a403a1ee7d81836
c gcc (Ubuntu 9.4.0-1ubuntu1~20.04.1) 9.4.0 -W -Wall -O3 -DNDEBUG
c Fri Oct 7 14:23:58 PDT 2022 Linux jap-Lenovo-Yoga-C740-15IML 5.15.0-48-generic x86_64
c
c ---- [ parsing ] -----------------------------------------------------------
c
c opened and reading DIMACS file:
c
c   Pigeon10Holes7
c
c parsed 'p cnf 70 325' header
c closing input after reading 3303 bytes (3 KB)
c finished parsing after 0.00 seconds
c
c ---- [ solving ] -----------------------------------------------------------
c
c  seconds switched rate      trail  variables
c         MB reductions conflicts glue   remaining
c          level restarts redundant irredundant
c
c *  0.00  1 0 0 0  0 0   0   0 0% 0 325 70 99%
c {  0.00  1 0 0 0  0 0   0   0 0% 0 325 70 99%
c u  0.01  3 8 0 0 80 2 637 128 95% 5 325 70 99%
c v  0.01  3 8 0 0 80 2 637 100 95% 5 325 70 99%
c -  0.01  3 8 0 1 103 2 1002 378 95% 5 325 70 99%
c }  0.01  3 8 1 1 103 2 1002 378 95% 5 325 70 99%
c [  0.01  3 0 1 1 103 0 1002 378 0% 0 325 70 99%
c B  0.02  3 0 1 1 103 0 1002 378 0% 0 325 70 99%
c i  0.02  3 8 1 1 103 1 1125 496 89% 5 325 69 97%
c u  0.02  3 11 1 1 103 1 1274 157 92% 6 325 69 97%
c ]  0.03  3 11 2 1 103 1 1737 603 88% 7 325 69 97%
c {  0.03  3 8 2 1 103 2 1737 603 95% 5 325 69 97%
c i  0.03  3 8 2 1 103 2 1764 627 95% 5 325 68 96%
c -  0.03  3 8 2 2 128 2 2002 223 95% 5 307 68 96%
c u  0.04  3 8 2 2 135 2 2601 692 94% 5 307 68 96%
c v  0.04  3 8 2 2 135 2 2601 649 94% 5 307 68 96%
c }  0.04  3 8 3 2 135 2 2649 697 94% 5 307 68 96%
c [  0.04  3 11 3 2 135 1 2649 697 88% 7 307 68 96%
c W  0.04  3 11 3 2 135 1 2649 697 88% 7 307 68 96%
c i  0.04  3 10 3 2 135 1 3004 1046 90% 7 307 67 94%
c
c  seconds  switched  rate         trail  variables
c         MB reductions conflicts     glue    remaining
c          level restarts   redundant irredundant
c
c e  0.04  3 11 3 2 135 1 3189 1221 91% 7 288 57 80%
c ^  0.04  3 11 3 2 135 1 3189 1221 91% 7 288 57 80%
c -  0.04  3 11 3 3 135 1 3416 382 91% 7 288 57 80%
c ]  0.05  3 12 4 3 136 1 4348 1209 91% 8 288 57 80%
c {  0.05  3 8 4 3 136 2 4348 1209 94% 5 288 57 80%
c u  0.06  3 8 4 3 220 2 4622 1412 93% 6 288 57 80%
c v  0.06  3 8 4 3 220 2 4622 1400 93% 6 288 57 80%
c }  0.07  3 8 5 3 267 2 4764 1533 93% 6 288 57 80%
c [  0.07  3 12 5 3 267 1 4764 1533 91% 8 288 57 80%
c I  0.07  3 12 5 3 267 1 4909 1673 91% 8 288 57 80%
c -  0.07  3 12 5 4 267 1 5148 983 90% 8 288 57 80%
c i  0.08  3 11 5 4 267 1 5571 1390 90% 8 288 44 62%
c i  0.08  3 11 5 4 267 1 5647 1454 89% 8 288 34 48%
c ]  0.08  3 11 5 4 267 1 5678 1469 89% 8 288 18 25%
c 0  0.08  3 8 5 4 267 2 5678 1469 93% 6 288 18 25%
c
c ---- [ result ] ------------------------------------------------------------
c
s UNSATISFIABLE
c
c ---- [ profiling ] ---------------------------------------------------------
c
c           0.07   89.30 %  search
c           0.04   49.41 %  stable
c           0.03   39.73 %  focused
c           0.01   10.26 %  simplify
c           0.01    8.87 %  probe
c           0.00    5.75 %  vivify
c           0.00    1.67 %  substitute
c           0.00    1.43 %  reduce
c           0.00    1.18 %  eliminate
c           0.00    1.08 %  sweep
c           0.00    0.34 %  backbone
c           0.00    0.26 %  parse
c           0.00    0.21 %  walking
c           0.00    0.09 %  subsume
c           0.00    0.03 %  warmup
c =============================================
c           0.08  100.00 %  total
c
c ---- [ statistics ] --------------------------------------------------------
c
c conflicts:                             5678            70763.59 per second
c decisions:                             9144                1.61 per conflict
c eliminated:                              10               14 %  variables
c propagations:                        107699          1342228    per second
c reductions:                               4             1420    interval
c rephased:                                 3             1893    interval
c restarts:                               267               21.27 interval
c strengthened:                            72               40 %  checks
c subsumed:                                15                8 %  checks
c vivified:                               828               94 %  checks
c walk_improved:                            1              100 %  walks
c walks:                                    1             5678    interval
c
c ---- [ resources ] ---------------------------------------------------------
c
c maximum-resident-set-size:          3325952 bytes          3 MB
c process-time:                                              0.08 seconds
c
c ---- [ shutting down ] -----------------------------------------------------
c
c exit 20
